NAME : XML100_2172_09
DIMENSION : 101
NB_CLUSTERS : 33
CLUSTERING_ALG : KMeans
CLUSTERING_PARAMS : k(40)
CLUSTERS
1 0
2 7 16 76
3 36 53 59 65 70 73 78
4 1 14 94
5 25 27 85 98
6 50 51 89
7 10 45 60 84
8 3 21 41
9 28 42 71 96
10 22 37 74
11 13 20 92
12 2 26 29 58
13 52 55 67
14 6 18 56 97
15 4 62 83
16 15 24 47
17 12 33 49 87
18 30 63 80 91
19 23 81
20 35 40 54
21 38 39 72 77
22 8 32
23 57 61 93
24 64 82
25 79 90
26 19 99
27 5 46 100
28 9 11 44
29 69 88
30 31 34
31 48 75 95
32 17 66 68
33 43 86
EOF